* ..+....1....+....2....+....3....+....4....+....5....+....6....+....7...
TITLE
Idealized Narrow-Beam - S1 (S1 - thuy tinh chi) @ 150 keV, th 1.0000 cm
DEFAULTS                                                              PRECISIO
BEAM        -0.00015       0.0       0.0       0.0       0.0       1.0PHOTON
BEAMPOS          0.0       0.0      -1.0
GEOBEGIN                                                              COMBNAME
    0    0          Idealized narrow-beam geometry - WITH S1 sample
SPH blkbody    0.0 0.0 0.0 300.0
SPH outerbnd   0.0 0.0 0.0 100.0
RCC sample     0.0 0.0 0.000000 0.0 0.0 1.000000 5.0
RCC detreg     0.0 0.0 1.000000 0.0 0.0 0.001000 5.0
END
BLKHOLE      5 +blkbody -outerbnd
SAMPREG      5 +sample
DETREG       5 +detreg
OUTERVAC     5 +outerbnd -sample -detreg
END
GEOEND
MATERIAL        20.0    40.078      1.55       0.0                 0.0CALCIUM
MATERIAL        14.0    28.085      2.33       0.0                 0.0SILICON
MATERIAL        13.0    26.982       2.7       0.0                 0.0ALUMINUM
MATERIAL        26.0    55.845     7.874       0.0                 0.0IRON
MATERIAL        16.0     32.06      2.07       0.0                 0.0SULFUR
MATERIAL        12.0    24.305     1.738       0.0                 0.0MAGNESIU
MATERIAL        19.0    39.098     0.862       0.0                 0.0POTASSIU
MATERIAL        11.0     22.99     0.971       0.0                 0.0SODIUM
MATERIAL         0.0       0.0       3.1       0.0                 0.0S1GLASS
COMPOUND     -0.4545   CALCIUM   -0.0912   SILICON   -0.0233  ALUMINUMS1GLASS
COMPOUND     -0.0259      IRON   -0.0108    SULFUR   -0.0084  MAGNESIUS1GLASS
COMPOUND     -0.0048  POTASSIU   -0.0042    SODIUM   -0.3411    OXYGENS1GLASS
ASSIGNMA    BLCKHOLE   BLKHOLE
ASSIGNMA     S1GLASS   SAMPREG
ASSIGNMA      VACUUM    DETREG
ASSIGNMA      VACUUM  OUTERVAC
PHOTONUC         1.0                      BLCKHOLE  @LASTMAT
EMFCUT       -0.0001     1e-06       1.0       1.0  @LASTMAT       1.0PROD-CUT
EMFCUT       -0.0001     1e-06       0.0   BLKHOLE  @LASTREG       1.0
USRBDX          99.0    PHOTON     -22.0   SAMPREG    DETREG   78.5398Uncoll1
USRBDX    0.000150150.00014985       1.0                              &
RANDOMIZ         1.0
START      1000000.0                                     0.0
STOP
