TITLE
FLUKA 16-Core Parallel Benchmark - Task 07 (Shield 3.5 cm)
*...+....1....+....2....+....3....+....4....+....5....+....6....+....7....+....8
* Kich hoat FREE format de phan tach bang dau phay
GLOBAL, , , , , , FREE
DEFAULTS, , , , , , PRECISIO
* Beam: 2.614 MeV Photon (tuong duong Tl-208 gamma line)
BEAM, -0.0026, , , , , PHOTON
BEAMPOS, 0.0, 0.0, -10.0, , , POSITIVE
* Random Seed doc lap cho moi may ao
RANDOMIZ, 1.0, 1613578
*
GEOBEGIN, , , , , , COMBNAME
    0    0          Shielding Benchmark Geometry
* --- Bodies ---
RPP beamBox, -15.0, 15.0, -15.0, 15.0, -12.0, -2.0
RPP shield,  -25.0, 25.0, -25.0, 25.0, 0.0, 3.50
RPP detBox,  -10.0, 10.0, -10.0, 10.0, 4.50, 9.50
RPP airBox,  -60.0, 60.0, -60.0, 60.0, -30.0, 60.0
RPP blkBox,  -100.0, 100.0, -100.0, 100.0, -100.0, 100.0
END
* --- Regions ---
TARGET   5 +beamBox
SHIELD   5 +shield
DETECTOR 5 +detBox
AIR      5 +airBox -beamBox -shield -detBox
BLKHOLE  5 +blkBox -airBox
END
GEOEND
*
* --- Materials ---
ASSIGNMA, COPPER, TARGET
ASSIGNMA, LEAD, SHIELD
ASSIGNMA, GERMANIU, DETECTOR
ASSIGNMA, AIR, AIR
ASSIGNMA, BLCKHOLE, BLKHOLE
*
* --- Scoring: USRTRACK do thong luong photon (Fluence) trong Detector ---
* Det volume = 20 * 20 * 5 = 2000 cm3, 50 energy bins tu 0 den 3 MeV (0.003 GeV)
USRTRACK, 1.0, PHOTON, -41.0, DETECTOR, 2000.0, 50.0, DetFlux
USRTRACK, 0.003, 0.0, , , , , &
*
* --- So luong hat: 250,000 hat (task nang, chay mat vai phut moi may ao) ---
START, 250000.0
STOP
